&GLOBAL
  PROJECT methane_md
  RUN_TYPE MD
  PRINT_LEVEL LOW
&END GLOBAL

&MOTION
  &MD
    ENSEMBLE NVE
    STEPS 1000           ! 1000 steps is enough for qualitative spectra
    TIMESTEP 0.5         ! 0.5 femtoseconds per step
    TEMPERATURE 300.0    ! Room temperature
  &END MD
  &PRINT
    &VELOCITIES
      &EACH
        MD 1
      &END EACH
    &END VELOCITIES
  &END PRINT
&END MOTION

&FORCE_EVAL
  METHOD Quickstep
  &DFT
    BASIS_SET_FILE_NAME ./GTH_BASIS_SETS
    POTENTIAL_FILE_NAME ./GTH_POTENTIALS
    &MGRID
      CUTOFF 200         
    &END MGRID
    &QS
      EPS_DEFAULT 1.0E-10
    &END QS
    &SCF
      MAX_SCF 20         
      EPS_SCF 1.0E-5
      &OT
        MINIMIZER DIIS
        PRECONDITIONER FULL_SINGLE_INVERSE
      &END OT
    &END SCF
    &XC
      &XC_FUNCTIONAL PBE
      &END XC_FUNCTIONAL
    &END XC
  &END DFT
  &SUBSYS
    &CELL
      ABC 10.0 10.0 10.0
    &END CELL
    &COORD
      C   5.000   5.000   5.000
      H   5.630   5.630   5.630
      H   4.370   4.370   5.630
      H   4.370   5.630   4.370
      H   5.630   4.370   4.370
    &END COORD
    &KIND H
      BASIS_SET DZVP-GTH
      POTENTIAL GTH-PBE-q1
    &END KIND
    &KIND C
      BASIS_SET DZVP-GTH
      POTENTIAL GTH-PBE-q4
    &END KIND
  &END SUBSYS
&END FORCE_EVAL
