&GLOBAL
      PROJECT METHANE_2
      RUN_TYPE ENERGY_FORCE
      PRINT_LEVEL MEDIUM
    &END GLOBAL
    &FORCE_EVAL
      METHOD Quickstep
      &DFT
        BASIS_SET_FILE_NAME ./GTH_BASIS_SETS
        POTENTIAL_FILE_NAME ./GTH_POTENTIALS
        &MGRID
          CUTOFF 280
        &END MGRID
        &QS
          EPS_DEFAULT 1.0E-10
        &END QS
        &SCF
          SCF_GUESS ATOMIC
          EPS_SCF 1.0E-5
          MAX_SCF 50
          &OT
            MINIMIZER CG
            PRECONDITIONER FULL_SINGLE_INVERSE
          &END OT
          IGNORE_CONVERGENCE_FAILURE .TRUE.
        &END SCF
        &XC
          &XC_FUNCTIONAL PBE
          &END XC_FUNCTIONAL
        &END XC
      &END DFT
      &SUBSYS
        &CELL
          ABC 10.0 10.0 10.0
        &END CELL
        &COORD
          C  5.000000  5.000000  5.000000
      H  5.620000  5.630000  5.630000
      H  4.370000  4.370000  5.630000
      H  4.370000  5.630000  4.370000
      H  5.630000  4.370000  4.370000

        &END COORD
        &KIND H
          BASIS_SET DZVP-GTH
          POTENTIAL GTH-PBE-q1
        &END KIND
        &KIND C
          BASIS_SET DZVP-GTH
          POTENTIAL GTH-PBE-q4
        &END KIND
      &END SUBSYS
      &PRINT
        &FORCES ON
        &END FORCES
      &END PRINT
    &END FORCE_EVAL
    