&GLOBAL
  PROJECT Ice_Ih_Small
  RUN_TYPE GEO_OPT
  PRINT_LEVEL LOW
&END GLOBAL

&FORCE_EVAL
  METHOD Quickstep
  &DFT
    &QS
      METHOD PM6
      EPS_DEFAULT 1.0E-10
    &END QS
    &SCF
      MAX_SCF 200
      EPS_SCF 1.0E-5
      IGNORE_CONVERGENCE_FAILURE .TRUE.
      &OT
        MINIMIZER DIIS
        PRECONDITIONER FULL_SINGLE_INVERSE
      &END OT
    &END SCF
  &END DFT

  &SUBSYS
    &CELL
      ! Updated dimensions for 2x2x2 box
      ABC 9.036 9.036 14.712
      ALPHA_BETA_GAMMA 90 90 120
      PERIODIC XYZ
    &END CELL
    &TOPOLOGY
      COORD_FILE_NAME ice_laptop.xyz
      COORD_FILE_FORMAT XYZ
    &END TOPOLOGY
  &END SUBSYS
&END FORCE_EVAL

&MOTION
  &GEO_OPT
    MAX_ITER 100
    OPTIMIZER BFGS
  &END GEO_OPT
&END MOTION
