 # Version information for this restart file 
 # current date 2026-02-04 19:32:06.222
 # current working dir /Users/mackenziehenley/cp2k/IceIh
 # Program compiled at                                       2025-01-01 12:26:53
 # Program compiled on                                                          
 # Program compiled for                                                    arm64
 # Source code revision number                                                  
 &GLOBAL
   PRINT_LEVEL LOW
   PROJECT_NAME "Titan_Ice_MD"
   RUN_TYPE MD
 &END GLOBAL
 &MOTION
   &MD
     ENSEMBLE NVT
     STEPS 1000
     TIMESTEP  4.9999999999999994E-001
     STEP_START_VAL 500
     TIME_START_VAL  2.4999999999999795E+002
     ECONS_START_VAL -3.7316240929058563E+002
     TEMPERATURE  9.4000000000000000E+001
     &THERMOSTAT
       TYPE CSVR
       &CSVR
         TIMECON  9.9999999999999986E+001
         &THERMOSTAT_ENERGY
            -2.6422329141526608E-002
         &END THERMOSTAT_ENERGY
         &RNG_INIT
 Wiener process for Thermostat # 1        1 F T F   7.0838577565347161E-01        1261916728.0        2348545333.0        3067717502.0        2311078479.0        2657739642.0        2524479427.0             12345.0             12345.0             12345.0             12345.0             12345.0             12345.0             12345.0             12345.0             12345.0             12345.0             12345.0             12345.0
         &END RNG_INIT
       &END CSVR
     &END THERMOSTAT
     &AVERAGES T
       &RESTART_AVERAGES
         ITIMES_START 1
         AVECPU  3.2890340240001672E+000
         AVEHUGONIOT  0.0000000000000000E+000
         AVETEMP_BARO  0.0000000000000000E+000
         AVEPOT -3.7363820482872478E+002
         AVEKIN  3.2422534618057858E-002
         AVETEMP  7.1847118969391175E+001
         AVEKIN_QM  0.0000000000000000E+000
         AVETEMP_QM  0.0000000000000000E+000
         AVEVOL  7.0202309426947704E+003
         AVECELL_A  1.7075565336754671E+001
         AVECELL_B  1.7075565336754671E+001
         AVECELL_C  2.7801650867013532E+001
         AVEALPHA  9.0000000000000000E+001
         AVEBETA  9.0000000000000000E+001
         AVEGAMMA  1.1999999999999999E+002
         AVE_ECONS -1.5074297483140208E+003
         AVE_PRESS  0.0000000000000000E+000
         AVE_PXX  0.0000000000000000E+000
       &END RESTART_AVERAGES
     &END AVERAGES
   &END MD
   &PRINT
     &TRAJECTORY SILENT
       &EACH
         MD 2
       &END EACH
     &END TRAJECTORY
   &END PRINT
 &END MOTION
 &FORCE_EVAL
   METHOD QS
   &DFT
     &SCF
       MAX_SCF 50
       EPS_SCF  1.0000000000000000E-004
       IGNORE_CONVERGENCE_FAILURE T
       &OT T
         MINIMIZER DIIS
         PRECONDITIONER FULL_SINGLE_INVERSE
       &END OT
     &END SCF
     &QS
       EPS_DEFAULT  1.0000000000000000E-010
       METHOD PM6
     &END QS
   &END DFT
   &SUBSYS
     &CELL
       A  9.0359999999999996E+000  0.0000000000000000E+000  0.0000000000000000E+000
       B -4.5179999999999980E+000  7.8254055485961880E+000  0.0000000000000000E+000
       C  0.0000000000000000E+000  0.0000000000000000E+000  1.4712000000000000E+001
       PERIODIC XYZ
       MULTIPLE_UNIT_CELL 1 1 1
     &END CELL
     &COORD
       O  6.6730223139186928E-001  2.7644932868068866E+000 -4.8770847246411279E-002
       H -6.1317475643098807E-002  2.1954952403711889E+000  2.5986674347101013E-001
       H  3.4594534109436820E-001  2.8872724598792137E+000 -9.6788641752836724E-001
       O  2.4522980686837399E+000  3.6612438808085190E-001  2.7897006863745868E+000
       H  3.0671265227009727E+000 -3.5729533764391436E-001  2.5458221846364357E+000
       H  3.1295038460675215E+000  9.7644226937659673E-001  3.1610415862476731E+000
       O  1.4336931317855203E-001  2.4677455609184062E+000  4.5015296188624863E+000
       H  1.0172298791339476E+000  2.8896554166503776E+000  4.4371903698274080E+000
       H -2.9495880048467066E-001  3.0983395686902577E+000  3.8984773362201550E+000
       O  2.2189062926326084E+000  1.9639992144260066E+000  6.1842357624872477E+000
       H  2.8470445286491151E+000  2.2605945225606798E+000  6.9006399154432838E+000
       H  1.4945032714908200E+000  2.5969970167984839E+000  6.3626114466728154E+000
       O  5.4323166928413158E-002  2.8451923127668763E+000  7.8439407238834287E+000
       H  5.8926245775242414E-001  3.0802886486268957E+000  8.6318175293307657E+000
       H -1.3805965400974590E-001  3.7524830579699326E+000  7.5168190741634371E+000
       O  3.0143505363884961E+000  1.4295705257057172E+000  1.0315191309740873E+001
       H  3.7139610500594196E+000  1.7373007412171915E+000  1.0959576517604235E+001
       H  3.6223944114724276E+000  1.5150463569521018E+000  9.5308507860934792E+000
       O  1.9181636600564511E-001  2.6394361767789176E+000  1.1452917298156629E+001
       H  1.1303406880118214E+000  2.3022594999065800E+000  1.1263373129197131E+001
       H  3.8102873989766523E-001  3.6075795737267100E+000  1.1290348646200936E+001
       O  2.4904140856479264E+000  8.4863061512009319E-001  1.2997841759306132E+001
       H  3.0803487114749206E+000  1.3886238704936145E+000  1.3535206357033195E+001
       H  1.6911664575384102E+000  1.2386454371853792E+000  1.3408960509968969E+001
       O -1.9498895720201619E+000  6.3542416262444537E+000 -1.4461380016319879E-002
       H -1.6396062217302139E+000  5.7660499436917876E+000 -7.2997980785098537E-001
       H -2.3056678443648400E+000  7.0875942949912734E+000 -5.8554184934099252E-001
       O -5.2082445297229196E-001  5.0038351479594523E+000  3.0518921311807357E+000
       H  9.7473066543187700E-002  5.6764758208833133E+000  3.4116892664959906E+000
       H -1.2880915085918356E+000  5.1842430947866243E+000  3.6851810520271351E+000
       O -2.8821665742686871E+000  6.4987461403093647E+000  5.0004903341369218E+000
       H -3.0371748821475890E+000  5.6429037668838706E+000  4.5603831928540774E+000
       H -3.0025386634713040E+000  7.1194024958935067E+000  4.2129854779003004E+000
       O -2.7461575307409813E-001  5.7070727843676332E+000  5.8037919963927314E+000
       H  6.6283543826370106E-001  5.8400780960433947E+000  6.0664157098958889E+000
       H -6.2743738667658455E-001  6.4468646439992536E+000  6.3871729575628278E+000
       O -2.9409525555660063E+000  7.1423092994585859E+000  7.4020087118328597E+000
       H -2.0500343193987538E+000  6.7601222889495363E+000  7.1971413511405640E+000
       H -2.9255872023985936E+000  7.9078208151658265E+000  6.7779660637890098E+000
       O -1.3219058329963773E-001  5.0316059129508384E+000  9.3020589295307108E+000
       H  6.4074885242759860E-001  5.3632399251712295E+000  9.8569701195261210E+000
       H -3.9137774644912132E-001  5.9225168071833219E+000  8.9874907179688961E+000
       O -2.5802910758455297E+000  6.7545245725765541E+000  1.1134136370575046E+001
       H -1.7474108088770708E+000  6.3511573079415165E+000  1.1535248943967311E+001
       H -2.1544548624251956E+000  7.6096291584740721E+000  1.0915741452619683E+001
       O -5.2046096791070230E-002  5.3809430946233698E+000  1.2709410397313151E+001
       H -1.4587193875268456E-001  5.7834188964324387E+000  1.1810284404727728E+001
       H  8.1122759165281033E-001  5.8085457722842673E+000  1.2962295967121614E+001
       O  4.6481144661690781E+000  1.9804462911823173E+000  3.2823535500053780E-001
       H  5.4923903566241421E+000  1.8191521435911793E+000 -1.6484313496134212E-001
       H  4.5169387068249138E+000  2.8992478477714450E+000  6.0657694466846566E-002
       O  6.4456883086792223E+000  9.4691044533216218E-001  2.7290065990791903E+000
       H  6.5828590375613079E+000  1.4355852755975183E+000  3.5717954893611021E+000
       H  5.9453903079094115E+000  1.6022655547972797E+000  2.2347357612313905E+000
       O  4.4945631238596420E+000  2.7948610489664469E+000  3.9102249048321496E+000
       H  3.6080582819421654E+000  3.0728302567763306E+000  4.2144749449496750E+000
       H  4.4767491392543279E+000  3.1983087853189169E+000  3.0129555253179636E+000
       O  6.7337632021182667E+000  1.0865278411101824E+000  6.3642461704399702E+000
       H  7.5295339257242411E+000  1.6457298105347453E+000  6.5573783122702531E+000
       H  6.0498501829152476E+000  1.7475977565292236E+000  6.6197674820198236E+000
       O  4.8763694738536465E+000  2.7441606770899889E+000  7.9011262814344319E+000
       H  5.3706633058038342E+000  2.7563885615015913E+000  8.7499722490424983E+000
       H  4.8281930040465504E+000  3.7170429748201825E+000  7.7823313463560408E+000
       O  6.8500482062176449E+000  1.4601792960370410E+000  9.8742045502246736E+000
       H  7.4331444724337628E+000  1.3058610268308986E+000  1.0678071743316114E+001
       H  7.5731605000253142E+000  1.6089983835309911E+000  9.1897116515056414E+000
       O  5.1263074651900373E+000  2.7825777023606526E+000  1.2080039486990522E+001
       H  5.6088883391695008E+000  3.3149573320186176E+000  1.1400902195814879E+001
       H  4.3784639854030845E+000  3.4063044209316327E+000  1.2236021787734582E+001
       O  7.1806237451385222E+000  5.2507820973145769E-001  1.3128582412859778E+001
       H  7.9775197449568669E+000  1.0780964985161055E+000  1.3281814435601348E+001
       H  6.5680300530787923E+000  1.3206855712060062E+000  1.3050858176950241E+001
       O  1.6496875897174346E+000  6.2665563371133164E+000  3.9762391813895077E-002
       H  1.9493878970409593E+000  7.1562661434418553E+000  3.1189548828831398E-001
       H  6.7424598871710206E-001  6.4089660843376723E+000  1.3610343781088569E-001
       O  4.2281240777169824E+000  5.0196475944244696E+000  1.9110744515543332E+000
       H  4.2910798639178669E+000  5.7797743379823627E+000  2.5365395258472727E+000
       H  3.2833947433924919E+000  5.1721089628476786E+000  1.6301236218916717E+000
       O  2.5370968704615171E+000  6.5212036469925838E+000  3.4935428275900455E+000
       H  1.5900001036466942E+000  6.3823417232515629E+000  3.7112938137503506E+000
       H  2.8544747246299749E+000  6.6761866482898480E+000  4.4153585254971706E+000
       O  3.5526874896651397E+000  5.5655668203912754E+000  6.0900571743148273E+000
       H  3.8057651315879637E+000  6.0654808662707005E+000  6.9050747920163547E+000
       H  4.4684841374703597E+000  5.5389723284455208E+000  5.7015991216390534E+000
       O  1.4080247169834907E+000  6.5427757126753283E+000  8.2826856380871217E+000
       H  2.2161683252140447E+000  6.0000898783183141E+000  8.2186018876031461E+000
       H  1.7676853745598038E+000  7.3747407814675014E+000  7.8713335204869397E+000
       O  5.0016854312174850E+000  4.6830820353840874E+000  9.6150781654714894E+000
       H  5.6177092649067202E+000  5.4259591142776307E+000  9.7564559259184840E+000
       H  4.1997390630694689E+000  5.1191223844294029E+000  9.9385428919378178E+000
       O  2.5214705772159061E+000  6.1172675384874307E+000  1.1088622614754248E+001
       H  2.8867987845091454E+000  6.5217642251092149E+000  1.1920967055003615E+001
       H  2.0662632218919015E+000  6.9250266062033710E+000  1.0778450503115010E+001
       O  4.5848329135314234E+000  5.3753894275103216E+000  1.3458645093639534E+001
       H  5.3804376976692820E+000  5.2314546190823954E+000  1.4042103119477710E+001
       H  3.9571064101165532E+000  5.7871036391520310E+000  1.4104649480688543E+001
     &END COORD
     &VELOCITY
         1.5177275418097271E-004  4.9559690421882830E-005 -4.4776401334220454E-005
         1.6736032943385522E-004 -1.3467591164187257E-004  1.1841080312281710E-004
        -6.9031821587889678E-005 -5.1199503905924686E-005  6.3449341186203327E-004
         1.9509603858596853E-005 -1.1460268803801831E-004  5.1381467339413392E-005
        -4.1248987613751989E-004 -8.7843199826277696E-004 -4.9009519729901902E-005
         3.4575220329490777E-004 -6.2363630555760884E-004  1.7290776757158183E-005
         2.1475507081653345E-004 -2.2515867681127012E-005 -2.2355400636599273E-005
        -1.6481293517726375E-004 -5.3372289467585850E-004 -1.1232407589057601E-004
        -2.6008858827210112E-004  1.6058729023998478E-004  5.7168656966756413E-005
         3.5085564703342715E-005  6.8444628570743711E-005  1.6124095477014052E-004
        -3.0984068428978638E-004  1.5849606217299307E-004  3.4211423388642913E-004
         2.4005170666871334E-004 -2.2311465760657968E-004  1.2738762123012240E-004
         5.0062761842145687E-005 -6.7237664553079999E-005  1.0394585556687747E-004
         2.5859679626605021E-004  2.4777663349148351E-004 -4.5527129909555034E-004
        -5.5010388629814688E-004  4.6110040465321880E-004 -2.3289908791609631E-004
         6.8112720467969532E-005  1.0281445254808315E-004  1.2292397069292006E-005
        -1.7468233260961995E-005  4.1536587671212823E-005 -1.2604645923471335E-004
        -1.8813569761673575E-005 -7.4123895334898241E-004 -1.8763931682221110E-004
        -3.7330297788822779E-005  1.0834308845050425E-004 -1.1234556199581285E-005
        -3.6924869449946540E-004  6.1854883176946202E-005  3.6033597452809845E-004
         1.6635704391853472E-004 -1.2358760613192946E-005 -1.0091631165606834E-004
         1.1296887998731782E-005 -7.7829108454586386E-006  9.8537713306211076E-005
         4.4419966244349236E-004  2.1701180966950763E-004 -1.0333258821993719E-004
        -1.2033400030048227E-005  3.8985568241285906E-004 -8.6730757952857970E-006
         6.8138888134427252E-005 -3.6204386171683307E-006 -4.0619038601828770E-005
         8.8193906665395675E-005 -5.5168071091069295E-005 -1.0888075684975980E-004
         7.2093983072582003E-004 -6.4753640083503995E-004  2.4368868329712208E-004
         4.8448181225680392E-005  2.9302620254149872E-005  1.2167737510282896E-004
        -4.2005172085642420E-004 -2.6935326124498458E-004  2.8735396682082930E-004
        -4.8683470640310936E-004  3.6622464791342393E-004 -6.2763124116211607E-005
        -3.0265564871677783E-005  6.8911273014405440E-005 -4.2503161282672550E-005
        -3.6646740512668067E-004  2.7395239683053007E-004  7.0402134451957204E-004
        -5.3864610030981226E-004 -4.3901891034343876E-004 -2.2612540761823204E-004
         5.2209293305038054E-005  6.9030720225019674E-005 -5.9882304020134588E-005
         7.3070218714399958E-004 -1.0952954759137008E-004 -2.2226041161499087E-004
         1.9360795231861629E-004 -3.8944326779430502E-004  3.3321267099772092E-004
        -1.5753117796087998E-004  4.5134038817079066E-005 -1.6694170089632035E-004
        -2.1286137179446054E-004  8.5853619108954991E-004 -4.9291188861750256E-004
        -5.4474957390255975E-005 -1.9602597111795524E-004  6.0171964419441528E-004
        -1.2280494153679581E-004  1.8785492675797908E-004 -1.3822516158924625E-004
         3.8900029214692904E-005 -6.6946328064127554E-004  4.2811261285994321E-004
        -1.9342448184418514E-004  1.8557183513503596E-004  3.8318905502991122E-004
        -6.4335073558177669E-005  1.4125981018450214E-004  1.5561025930384989E-004
         8.4391447661524575E-005  4.0770368341215676E-004 -2.7970509425521653E-004
        -7.7485995056033089E-004 -4.5882713390276755E-005  3.4687462214184175E-006
        -4.3733586491446936E-005 -1.1427589093599313E-004 -1.0361290811226542E-004
        -5.1394319767429544E-004  4.6683427821462561E-004  1.6304122895914917E-004
        -1.8149894396986412E-004  5.7212057909158465E-004 -6.2893437971343419E-005
         7.4217069950520973E-005 -3.4039968683933255E-005  8.2638776305058218E-005
         2.7263242998296354E-004 -2.6801078567573227E-004 -1.2561377172216483E-004
         1.8723751085537869E-006 -3.2158698603819240E-004 -6.4381035435648229E-004
        -2.1176133505510921E-004 -1.0518849480717651E-004 -9.7352491111789052E-005
        -3.8603609447418604E-004  1.8657323075653193E-004  3.7716783602201255E-004
         4.8011221393161492E-004  3.8111987377767684E-005  4.4429051734146058E-005
         2.6068304952504086E-004  1.7414286864004893E-004 -4.5215644347751214E-005
         9.9168904353375738E-005 -5.1400933775308099E-004 -3.7108139981310184E-004
         3.1090637224077353E-004  5.6845472462699732E-004  1.9796395824029205E-004
         9.4305109061045486E-005 -1.2516858956278446E-004 -7.9235166254552913E-005
        -2.2579120299154394E-004 -2.8855262220229163E-005  3.3037187809950358E-004
        -4.9143682413466908E-005 -3.0807075579429067E-004 -4.5514135095656979E-004
         8.2705081738559174E-005 -1.5014199099657182E-006 -4.7167982978449889E-005
        -1.8057989408275026E-005 -2.7752885759098003E-004  1.2072258727640176E-004
         2.3163283750728372E-004 -2.0625956117399541E-004 -5.8400882444596192E-004
        -7.2326163104276164E-005 -5.3400132524151921E-005 -1.2968702887559163E-005
        -4.8126509058629637E-004 -2.3211472376275145E-004 -7.3997384581089116E-004
         5.2989224441724975E-005 -2.2246604199170823E-004  4.3120231152798868E-004
         1.9054427600817667E-004  4.6410505756696998E-005  2.1245076378516975E-004
        -4.9350030656995130E-004  1.5495162980404946E-005  1.6920185648410150E-004
        -2.8795141711059692E-004 -3.6578321460831371E-004 -4.4279276932473208E-004
         5.4214388908485954E-005 -3.5705778109402748E-005  1.3136340020815617E-004
         6.9320766876933043E-004 -3.6398532684708021E-004 -1.9903955074905644E-004
         3.6679998637773411E-004 -5.7375742633576665E-004 -6.4026097968654109E-006
        -1.9871923676904266E-004  5.7341764293842230E-005 -1.8633989347484716E-004
        -6.5482348686418754E-004 -1.6554465636783595E-004  6.1606230398665541E-004
        -8.6218257079765946E-006  1.1512942604929928E-004 -2.2023694267905546E-004
        -2.4589443901322524E-005 -4.3321750962288198E-005 -1.2366998954812584E-004
         8.5706536941226408E-005 -4.2864426182263632E-004  2.7174515774177553E-004
        -7.7241005593439203E-006  2.6136834833747827E-004 -1.4239424266753982E-004
         1.2686088662180193E-004 -9.2130600371875492E-005  2.3237422466131005E-005
         3.2411454349127458E-004 -1.1745201916685864E-004  3.2708264481089006E-005
         3.3629723267629224E-004 -5.1557559771644318E-004  1.0108772724982544E-004
        -2.0756294032596597E-004 -1.6253251254268964E-004  1.2147336331597471E-004
        -5.0422908128322801E-004  3.1015285545081837E-004 -3.4872809932854449E-004
        -3.0941296315313273E-004  1.4198816678053769E-004  1.1690232689530038E-004
        -1.2966287762599990E-004  7.3056337884810412E-006  5.7958733174750678E-005
        -5.9021873078172788E-004  1.0833518092817531E-004 -1.1008732558015991E-004
        -3.5475472229739736E-005  4.5627237125178281E-004 -7.4170171891163898E-004
         3.5721446827481000E-005  2.2717414217140279E-005 -3.4048650448470831E-005
         3.2802137970940943E-004  4.2644243917407706E-004  2.7390310340416152E-004
        -7.3855201365553020E-005 -3.5176825545876945E-004 -2.1612155128505190E-004
        -7.7708178097061603E-005 -2.0247837434555279E-005 -9.2280958968838289E-005
         4.5585802633151895E-004  1.9510948771157293E-004 -3.1629110715374813E-004
        -1.5064407281974878E-004 -4.2148772736530998E-004 -3.6943628028685899E-004
        -5.8035041919852446E-005  9.3078186047006474E-005  5.5584043928130713E-005
        -5.3996237226827128E-004 -2.2763771486119895E-004  3.6525683467398949E-004
         1.4515243013937457E-005 -2.2336590884545199E-005 -3.9432380393104417E-005
     &END VELOCITY
     &TOPOLOGY
       COORD_FILE_NAME ice_relaxed.xyz
       COORD_FILE_FORMAT XYZ
       NUMBER_OF_ATOMS 96
       MULTIPLE_UNIT_CELL 1 1 1
     &END TOPOLOGY
   &END SUBSYS
 &END FORCE_EVAL
