 # Version information for this restart file 
 # current date 2026-02-04 19:59:06.248
 # current working dir /Users/mackenziehenley/cp2k/IceIh
 # Program compiled at                                       2025-01-01 12:26:53
 # Program compiled on                                                          
 # Program compiled for                                                    arm64
 # Source code revision number                                                  
 &GLOBAL
   PRINT_LEVEL LOW
   PROJECT_NAME "Titan_Ice_MD"
   RUN_TYPE MD
 &END GLOBAL
 &MOTION
   &MD
     ENSEMBLE NVT
     STEPS 1000
     TIMESTEP  4.9999999999999994E-001
     STEP_START_VAL 1000
     TIME_START_VAL  4.9999999999999636E+002
     ECONS_START_VAL -3.7316240929058563E+002
     TEMPERATURE  9.4000000000000000E+001
     &THERMOSTAT
       TYPE CSVR
       &CSVR
         TIMECON  9.9999999999999986E+001
         &THERMOSTAT_ENERGY
            -3.0036265467054353E-002
         &END THERMOSTAT_ENERGY
         &RNG_INIT
 Wiener process for Thermostat # 1        1 F T F   3.6738641053093107E-01        1747276819.0          15275675.0        2492954750.0        1240525271.0         148586405.0        1766811893.0             12345.0             12345.0             12345.0             12345.0             12345.0             12345.0             12345.0             12345.0             12345.0             12345.0             12345.0             12345.0
         &END RNG_INIT
       &END CSVR
     &END THERMOSTAT
     &AVERAGES T
       &RESTART_AVERAGES
         ITIMES_START 1
         AVECPU  3.2645428180000740E+000
         AVEHUGONIOT  0.0000000000000000E+000
         AVETEMP_BARO  0.0000000000000000E+000
         AVEPOT -3.7363289626014051E+002
         AVEKIN  3.5917617379433060E-002
         AVETEMP  7.9592091098267559E+001
         AVEKIN_QM  0.0000000000000000E+000
         AVETEMP_QM  0.0000000000000000E+000
         AVEVOL  7.0202309426947795E+003
         AVECELL_A  1.7075565336754675E+001
         AVECELL_B  1.7075565336754675E+001
         AVECELL_C  2.7801650867013464E+001
         AVEALPHA  9.0000000000000000E+001
         AVEBETA  9.0000000000000000E+001
         AVEGAMMA  1.1999999999999999E+002
         AVE_ECONS -1.5031025485246630E+003
         AVE_PRESS  0.0000000000000000E+000
         AVE_PXX  0.0000000000000000E+000
       &END RESTART_AVERAGES
     &END AVERAGES
   &END MD
   &PRINT
     &TRAJECTORY SILENT
       &EACH
         MD 2
       &END EACH
     &END TRAJECTORY
   &END PRINT
 &END MOTION
 &FORCE_EVAL
   METHOD QS
   &DFT
     &SCF
       MAX_SCF 50
       EPS_SCF  1.0000000000000000E-004
       IGNORE_CONVERGENCE_FAILURE T
       &OT T
         MINIMIZER DIIS
         PRECONDITIONER FULL_SINGLE_INVERSE
       &END OT
     &END SCF
     &QS
       EPS_DEFAULT  1.0000000000000000E-010
       METHOD PM6
     &END QS
   &END DFT
   &SUBSYS
     &CELL
       A  9.0359999999999996E+000  0.0000000000000000E+000  0.0000000000000000E+000
       B -4.5179999999999980E+000  7.8254055485961880E+000  0.0000000000000000E+000
       C  0.0000000000000000E+000  0.0000000000000000E+000  1.4712000000000000E+001
       PERIODIC XYZ
       MULTIPLE_UNIT_CELL 1 1 1
     &END CELL
     &COORD
       O  1.1476506397216746E+000  3.0190689057832030E+000  8.3676515626201167E-002
       H  3.4564099825406536E-001  2.4746485550094408E+000 -9.9130476234367632E-002
       H  9.2871365587542221E-001  3.7473155106598384E+000 -4.9203196869992610E-001
       O  2.7580765775318898E+000  2.2776167505386608E-001  2.5193731647704123E+000
       H  3.0369830824913420E+000  9.1098450431251132E-001  1.8511215634283564E+000
       H  2.9770403621892720E+000 -5.5105312236511106E-001  1.9731482303590904E+000
       O  7.8056057610707985E-001  2.3077932886866788E+000  4.1938185638903995E+000
       H  8.0307430072827646E-001  1.9510502754948273E+000  3.3002652752498198E+000
       H  5.2124515145040906E-001  3.2194442692029206E+000  3.8972893713969761E+000
       O  3.0026669471817851E+000  1.8771058745870319E+000  6.4524408738827503E+000
       H  2.8128780136305052E+000  2.7790614440125450E+000  6.8436679791520909E+000
       H  2.4066139841855705E+000  1.9236377649168370E+000  5.6778810914695637E+000
       O -2.3650599742772643E-002  2.6636051433276355E+000  8.3190045051771104E+000
       H  5.3171176956504729E-001  2.7178839266188479E+000  9.0985350449195881E+000
       H -4.2193662187949488E-001  3.5892654935376922E+000  8.3486498637108486E+000
       O  3.0617004106628438E+000  2.0678037611959792E+000  9.9259564999055296E+000
       H  3.9497273733530749E+000  2.3431259977659784E+000  1.0282583066033274E+001
       H  2.9360969810077693E+000  2.9443327719012879E+000  9.4533248730032806E+000
       O -3.4590126560065521E-002  2.2136225479284053E+000  1.1265898094472703E+001
       H  8.5308856469078653E-001  2.1209458211920591E+000  1.1702189174841347E+001
       H -3.0449268642881655E-001  3.0695933811370515E+000  1.1730961810760565E+001
       O  3.0310315758810771E+000  9.2285286181718862E-001  1.3170028516063997E+001
       H  3.8939123714172581E+000  1.0517703725885523E+000  1.3587563407579665E+001
       H  2.5903485141525389E+000  1.6254282579695636E+000  1.3666211395164833E+001
       O -1.9098808283497586E+000  5.6000895263247967E+000  2.0128817544322197E-001
       H -1.5858176243535442E+000  5.1815809406448032E+000  1.0485838473682549E+000
       H -1.1270443858937651E+000  5.4282847394550995E+000 -3.4230201564132012E-001
       O -2.6496998883673789E-001  4.9168902532794130E+000  3.0384466792942830E+000
       H  1.6588738971635364E-001  5.3795203489318020E+000  3.7887450645174168E+000
       H -1.1514542852897298E+000  4.7475620590033119E+000  3.4867251669420103E+000
       O -3.7278888994099124E+000  6.2390728302256164E+000  4.6977293575133352E+000
       H -3.4749364341196225E+000  5.3825794132476172E+000  4.3073799520604554E+000
       H -3.2466578689200776E+000  6.8444130596688799E+000  4.0693888334257959E+000
       O -6.2458502368825031E-001  5.9585124100492433E+000  5.7365817128733285E+000
       H -4.1517927988473180E-001  6.9346581717017832E+000  5.7498165779830499E+000
       H  1.0802462731480260E-001  5.6879697651532304E+000  6.3205844843806736E+000
       O -3.1968554848871262E+000  7.0847385132278422E+000  7.3364445191619554E+000
       H -3.2399390834775055E+000  6.6367478375951485E+000  6.4365394608894286E+000
       H -2.7830988877289102E+000  7.9383372160270511E+000  7.0812921801516628E+000
       O -1.3291194312553010E+000  5.8792950772513910E+000  8.9526853591130866E+000
       H -1.2326802373164232E+000  6.5580184235496723E+000  9.6682569622253869E+000
       H -1.5339246087907406E+000  6.5599642782558831E+000  8.2685823471709892E+000
       O -3.1856034536527984E+000  7.6729395483874585E+000  1.1719511823580238E+001
       H -2.8355055558707289E+000  6.9898950407277800E+000  1.2370626222440020E+001
       H -2.3068536031024145E+000  7.9041864966523363E+000  1.1380935799570228E+001
       O -9.0772153086536217E-002  5.3510199687496698E+000  1.1901918217556970E+001
       H  8.3436718568536350E-001  5.1724995596794452E+000  1.1597623731153112E+001
       H  9.3189041764598080E-002  6.1594226989348924E+000  1.2443035836007192E+001
       O  5.0651412000715217E+000  2.0662386653563858E+000  5.3551500105830430E-001
       H  5.7996183597243585E+000  2.0406376684458003E+000 -1.2820473903864341E-001
       H  4.8174009759048060E+000  2.9899606426294185E+000  4.2642726651940877E-001
       O  5.7276336434568833E+000 -4.8315626883368497E-002  2.6163833954747058E+000
       H  5.1881019203818051E+000  7.5954011507011476E-001  2.7937731884180264E+000
       H  5.0340812826835570E+000 -6.8677790387191984E-001  2.4753977954788779E+000
       O  5.8033040645882608E+000  3.4969152311520535E+000  4.0728810083630895E+000
       H  5.4750887670667012E+000  2.9086062599908833E+000  4.7812475597628961E+000
       H  5.1274517960647614E+000  3.3023410816506491E+000  3.3920033065820765E+000
       O  7.0823602550180640E+000  3.9258067949659231E-001  6.0812180201335986E+000
       H  7.9677363878876575E+000  2.4817513927373472E-001  6.4888142218171314E+000
       H  7.2548702936476275E+000  1.2859260086456097E+000  5.7149333625288321E+000
       O  5.4557929704133139E+000  2.8188076912440194E+000  7.4288589651930437E+000
       H  5.6888633298561748E+000  2.2952006981043325E+000  8.2342833263196304E+000
       H  4.7990053384937132E+000  3.3950307964032613E+000  7.8816961088284883E+000
       O  6.7357771211181818E+000  1.2415520922013350E+000  1.0066824137608762E+001
       H  6.7099385882846123E+000  1.9360170601191085E+000  1.0784954825172663E+001
       H  7.6335390170722741E+000  1.4743526392687185E+000  9.6510680944725191E+000
       O  6.0486355520084505E+000  3.3140032797794028E+000  1.2301906379274667E+001
       H  5.8024701435735979E+000  2.9871250232331361E+000  1.1398674458894911E+001
       H  5.7468631242469019E+000  4.2526369118893292E+000  1.2209832181006609E+001
       O  7.7526782840541637E+000  1.0159501752353242E+000  1.3593456359010268E+001
       H  8.1410331414819037E+000  8.8809226621479942E-001  1.2665461614555170E+001
       H  7.1787836910480198E+000  1.7660388990013176E+000  1.3295047486456605E+001
       O  1.0354197163713401E+000  6.4868853346506556E+000 -3.3120129728903956E-002
       H  7.0355141329966819E-001  7.3632824625395008E+000  2.6609819047780781E-001
       H  1.9530051725654329E+000  6.7323948977570947E+000 -2.4474710551399262E-001
       O  3.9781430147832233E+000  4.8454981124729644E+000  1.4833281788209016E+000
       H  4.2018487904323090E+000  4.5783919276526994E+000  2.4130114479858951E+000
       H  3.3023934751788540E+000  5.5436672442136166E+000  1.7063219496077091E+000
       O  2.7929463099445555E+000  6.0984384712111170E+000  3.4745903346199718E+000
       H  1.8841996130301042E+000  6.0172401787154035E+000  3.8428455895603744E+000
       H  2.9205726451179332E+000  7.0595262995074570E+000  3.6533628585576587E+000
       O  2.8967127866826745E+000  5.2782396025281342E+000  7.1010374283806845E+000
       H  3.0262809776090314E+000  5.3437783869296522E+000  6.1262177810357104E+000
       H  3.7423413652021371E+000  5.7346807291032800E+000  7.3500637830730300E+000
       O  7.7953605926771141E-001  7.0774214983837451E+000  8.3566464944220087E+000
       H  1.5262024544612955E+000  6.7421465209015965E+000  7.8389889211486121E+000
       H  9.1793989149272115E-001  8.0416918457373150E+000  8.1428916727163436E+000
       O  4.9570195380831326E+000  4.6691693535954553E+000  1.0103554808597302E+001
       H  5.5197429630810522E+000  5.1662736765039066E+000  9.4937209528107331E+000
       H  4.3998488074848314E+000  5.4158319919853826E+000  1.0391296403811056E+001
       O  2.4331597222594956E+000  5.9959436849066314E+000  1.0640783080886212E+001
       H  2.5625300416365873E+000  6.9588696521063680E+000  1.0832042319647131E+001
       H  2.0686313283969873E+000  6.1476657915810202E+000  9.7364131344342795E+000
       O  3.9193001468660205E+000  5.1497950669482195E+000  1.3618299358270122E+001
       H  4.2982087219949205E+000  5.8631550590248036E+000  1.4194450164566042E+001
       H  4.0599171077849441E+000  4.3469186022768227E+000  1.4190622479751042E+001
     &END COORD
     &VELOCITY
         3.9188367001086102E-005 -5.1705492756266333E-006  1.9990817355135793E-005
         7.0419434350708747E-004 -2.5779997821163091E-004 -8.0253886300362634E-004
        -2.5730180564255309E-004  3.5418148598290178E-004  4.2489857052907819E-004
        -9.5355100775250894E-005  1.4184627009010054E-004 -1.1900145042707086E-005
         4.0134958548858265E-004  2.4416476702815882E-004  2.7359331480410273E-005
         3.8642636979093533E-004 -6.0726219162787298E-005  2.5048507074057930E-004
         8.6258634806116662E-005 -9.3844469566880352E-005 -4.1132309105437500E-005
         2.7865202693433373E-004  1.1401880979178959E-004  3.6150934709196897E-004
        -2.6939353480252327E-004 -1.2857443472960350E-004 -1.2691776678835050E-004
         1.1378789465712551E-004 -5.3464045967544531E-005 -1.0903089133837693E-004
         5.8617446008577022E-004 -3.9727697708464953E-004 -1.5968264666543354E-004
        -4.6124547425357857E-004  4.7761539932036959E-005  3.5314874444562940E-004
         3.4770393260485958E-005  1.3892708764458255E-005  1.3653453887206972E-005
         5.6355729500016829E-004 -5.1626126469466198E-004 -7.4881546729028048E-005
         3.1533981888869979E-005  2.7503575486953756E-004  3.8456127353922497E-004
        -4.5788754726935166E-005  1.1096400061573983E-004  1.8658182915827271E-006
         1.0922435934394342E-004  2.2449301634150460E-004 -5.8075561729037958E-004
        -1.5391835241781416E-004  1.3750942222960080E-004  7.7219461015370255E-005
        -2.9265479571948842E-005  7.2943525474899136E-006 -1.3353185844935540E-004
        -2.1489584369782687E-004 -3.1076483648156223E-004  2.3173855636151328E-004
        -1.1618934540281912E-004  5.0149224215725343E-004  1.9466779877088075E-004
         5.5055923565640173E-006 -2.5740117184420856E-005  3.4576810774421053E-005
        -7.4971699697579862E-005  5.5936719386115803E-005  4.4004659594820732E-004
         7.9221427429902020E-004  3.0534629232494443E-004 -1.5428499228015973E-004
        -5.1769671298336565E-005 -2.2370304074218644E-004 -1.4652352703208694E-004
        -6.8887752953113995E-005  2.1774848858353708E-004  9.1102239140444043E-005
        -6.9911707222583986E-004 -5.0874246715574807E-004  5.5966981195271443E-004
         2.7260381156347197E-005 -1.6904526189641893E-004 -1.7112574942476950E-004
        -5.2812654995482969E-004 -8.6119898280107260E-005 -6.5804048018606122E-005
        -5.4002763165824165E-005 -3.8255759228871222E-004 -4.2786144367201506E-004
        -8.9457632567019010E-005  1.9915031349233435E-004 -1.6296677163937044E-004
        -1.3982374577077052E-004 -1.9035952201445618E-004  2.3129066620304237E-004
        -7.7669605299095885E-004 -1.3868699215229154E-004 -1.2644959731557577E-004
        -2.1374613988541392E-004  6.9590240399766069E-005 -6.3970013637834029E-006
        -5.3533197663614305E-004  7.8733778190373733E-004  1.0932551017713611E-003
         2.9236777800535526E-004  3.3573744479680178E-004 -9.1056466521549737E-004
         4.7631560274775498E-006  2.2983005035250364E-005  1.0146900746040720E-004
        -5.9474300675151971E-004  1.8669230796662455E-005 -7.5916390579695874E-005
        -7.8040399777576982E-004 -3.3288981571068271E-004  2.0549487729249643E-004
        -1.8528276541545158E-004  1.0510715623436561E-004 -1.4207471933596336E-005
        -2.4515264858464313E-004 -1.6962580592310043E-005 -7.2547168979271570E-005
        -4.3636906791914598E-004  3.5857705168649342E-004  1.7345469876937442E-004
        -1.5103572527412890E-005  8.3480120014206113E-005  7.1894604288654949E-005
        -5.1141871326412834E-004  4.2041028053808618E-005  4.9244616757689169E-005
         3.5659974039815010E-004 -7.2962607446959047E-004  1.7119361667848525E-004
        -1.5754282949547078E-005 -3.1421016520533927E-005 -1.6219643808107898E-004
         2.2357541615084759E-004  3.7116778352420390E-004 -9.3364994964910997E-006
        -6.8843828545970837E-004 -3.6002651390956344E-005 -7.5459509295067149E-005
         2.5630507075642923E-005  1.3505912141712297E-004  7.9439587524136719E-005
         7.5475169827729209E-005  1.5424864370073890E-004  6.0613076402940319E-004
         8.3073702477216881E-005  3.4904077755586676E-004  5.4508544500465238E-005
        -9.7521231494585847E-005 -1.6221616266279759E-004 -4.8213649106024221E-005
         1.0705933696541506E-004 -4.6502096348674825E-004  4.8424460839312998E-004
        -1.8235190729641960E-005 -5.6828290372459020E-004  3.9107157635320707E-004
         2.6315298473729399E-004 -1.3214148259767990E-004 -2.7723687527694714E-005
         1.8038629201758526E-004  4.5811112749144988E-004  3.4445925357730030E-004
         1.8170294189906019E-004 -1.3337145297525528E-004  2.4562255365865291E-004
         1.3427837015623711E-004 -1.2014915128314438E-004 -7.3198207437586842E-005
        -2.8897617767109895E-004 -7.9948195895281863E-005  3.5633736343637068E-005
         3.2333455884257567E-004 -1.6394941170226935E-004 -8.7605450534414936E-005
         1.8799447421325959E-004  7.2758434026472406E-005 -2.0087086452025500E-005
        -1.5859989022237527E-004 -2.9704687938870414E-004 -1.7705311935459260E-004
        -1.1880179538662981E-004 -8.4060314024509349E-005 -5.6424777258225439E-004
         2.7022440265395213E-005 -2.9438070175190882E-005  1.2823864379493194E-004
         1.4533682347190168E-004  7.2657438589152917E-005 -7.5852782454564004E-004
        -3.7993514957964221E-004 -1.6710426171510315E-004  1.4274714777150381E-004
         2.1404615608523950E-004  1.6711800368439714E-004 -6.0091069130939638E-005
        -1.4705687361827753E-004  9.5760637288597007E-005  3.3417660817644968E-004
        -3.5910718765515059E-004 -2.0219947129572922E-004 -3.2253435704282330E-005
         1.0105996881091721E-004  1.7038333739567281E-004  1.5472342866222724E-004
        -6.2520128792609008E-006  1.7345144154693061E-004 -2.0727906960608738E-004
         6.5900889546780200E-004  2.0560624907187797E-004  1.7431393164014588E-004
         1.4711208455516425E-004  2.2400208834730805E-005  5.3876254456608132E-005
         8.4152273882671970E-005  3.1714108791064565E-005 -2.6890945614872687E-004
        -2.5959146649262701E-004  2.2987916627759751E-004  1.0303865661912299E-004
        -9.5174120644693123E-005 -1.1138313462447773E-004  1.3333259144973307E-006
        -5.2497242230745156E-004 -3.7607055874487133E-004  1.3500302281857981E-004
         3.5761091124209807E-004  1.8182001388892066E-004 -1.1585201009208694E-004
        -8.3327452686391407E-006 -8.0719534443255328E-005  1.1862624453842598E-004
         1.7848373744072164E-004  3.2884012982419258E-004 -5.3068739565837754E-004
         5.6471020986013313E-004  2.3945951708285510E-004  6.0401163630330670E-004
        -3.3116549908549082E-005  2.6264283529419010E-005  2.1846773283404729E-004
        -1.1374641244086815E-006 -5.8229252272895622E-005  2.4869078588015536E-004
         2.6141698170212740E-005 -4.2481396682155268E-004 -7.4726033020091672E-006
        -1.1918799425101881E-004 -4.3336315914956619E-006 -4.4538265745650663E-005
        -5.6191690854311203E-004  3.1054809963159080E-004  3.4262056897899762E-004
        -6.8458643163215715E-004  3.3055846281518575E-004 -5.3553079633620660E-004
         2.6110783317168744E-005  3.9075732303585855E-005  1.5859295993591232E-004
        -1.6245667273316890E-004 -4.4478632697638934E-004 -4.7475526016094275E-004
         4.5035648736965002E-004 -1.1727406563278075E-004  5.3153385335294872E-005
        -3.3864389253213680E-005 -1.7998243215545761E-006 -6.5570425150752993E-005
         1.8650310900888970E-004 -4.0599330297729409E-005 -1.6004682264302405E-004
        -2.7257207283163109E-004  5.9188065726441565E-005  1.7382098448879478E-004
        -1.5122033773424021E-004 -1.1319168336666905E-004  1.1489171278293418E-005
         4.7480773150220183E-005 -4.1106192780961673E-004 -2.2806587543060904E-005
         6.6592456474788716E-004  4.5119209728753874E-005 -1.2090009233604092E-004
     &END VELOCITY
     &TOPOLOGY
       COORD_FILE_NAME ice_relaxed.xyz
       COORD_FILE_FORMAT XYZ
       NUMBER_OF_ATOMS 96
       MULTIPLE_UNIT_CELL 1 1 1
     &END TOPOLOGY
   &END SUBSYS
 &END FORCE_EVAL
