 # Version information for this restart file 
 # current date 2026-02-04 19:58:01.735
 # current working dir /Users/mackenziehenley/cp2k/IceIh
 # Program compiled at                                       2025-01-01 12:26:53
 # Program compiled on                                                          
 # Program compiled for                                                    arm64
 # Source code revision number                                                  
 &GLOBAL
   PRINT_LEVEL LOW
   PROJECT_NAME "Titan_Ice_MD"
   RUN_TYPE MD
 &END GLOBAL
 &MOTION
   &MD
     ENSEMBLE NVT
     STEPS 1000
     TIMESTEP  4.9999999999999994E-001
     STEP_START_VAL 980
     TIME_START_VAL  4.8999999999999591E+002
     ECONS_START_VAL -3.7316240929058563E+002
     TEMPERATURE  9.4000000000000000E+001
     &THERMOSTAT
       TYPE CSVR
       &CSVR
         TIMECON  9.9999999999999986E+001
         &THERMOSTAT_ENERGY
            -3.3197749217650271E-002
         &END THERMOSTAT_ENERGY
         &RNG_INIT
 Wiener process for Thermostat # 1        1 F T F   3.7583581555281209E-01        1796893340.0        2080539822.0        4275752861.0        3656340404.0        2157680846.0        3137687376.0             12345.0             12345.0             12345.0             12345.0             12345.0             12345.0             12345.0             12345.0             12345.0             12345.0             12345.0             12345.0
         &END RNG_INIT
       &END CSVR
     &END THERMOSTAT
     &AVERAGES T
       &RESTART_AVERAGES
         ITIMES_START 1
         AVECPU  3.2653366826531682E+000
         AVEHUGONIOT  0.0000000000000000E+000
         AVETEMP_BARO  0.0000000000000000E+000
         AVEPOT -3.7363302094401701E+002
         AVEKIN  3.5798671515051866E-002
         AVETEMP  7.9328511530236156E+001
         AVEKIN_QM  0.0000000000000000E+000
         AVETEMP_QM  0.0000000000000000E+000
         AVEVOL  7.0202309426947795E+003
         AVECELL_A  1.7075565336754675E+001
         AVECELL_B  1.7075565336754675E+001
         AVECELL_C  2.7801650867013464E+001
         AVEALPHA  9.0000000000000000E+001
         AVEBETA  9.0000000000000000E+001
         AVEGAMMA  1.1999999999999999E+002
         AVE_ECONS -1.5032806163602877E+003
         AVE_PRESS  0.0000000000000000E+000
         AVE_PXX  0.0000000000000000E+000
       &END RESTART_AVERAGES
     &END AVERAGES
   &END MD
   &PRINT
     &TRAJECTORY SILENT
       &EACH
         MD 2
       &END EACH
     &END TRAJECTORY
   &END PRINT
 &END MOTION
 &FORCE_EVAL
   METHOD QS
   &DFT
     &SCF
       MAX_SCF 50
       EPS_SCF  1.0000000000000000E-004
       IGNORE_CONVERGENCE_FAILURE T
       &OT T
         MINIMIZER DIIS
         PRECONDITIONER FULL_SINGLE_INVERSE
       &END OT
     &END SCF
     &QS
       EPS_DEFAULT  1.0000000000000000E-010
       METHOD PM6
     &END QS
   &END DFT
   &SUBSYS
     &CELL
       A  9.0359999999999996E+000  0.0000000000000000E+000  0.0000000000000000E+000
       B -4.5179999999999980E+000  7.8254055485961880E+000  0.0000000000000000E+000
       C  0.0000000000000000E+000  0.0000000000000000E+000  1.4712000000000000E+001
       PERIODIC XYZ
       MULTIPLE_UNIT_CELL 1 1 1
     &END CELL
     &COORD
       O  1.1360666886972497E+000  3.0138950295688653E+000  8.0070678929037811E-002
       H  2.6012154086000339E-001  2.5885669972562280E+000  5.8102558268598996E-002
       H  9.5362506135604153E-001  3.6868573237206386E+000 -6.0216819332755100E-001
       O  2.7811134823236312E+000  1.9586939568913347E-001  2.5207247950995879E+000
       H  2.9234062490238668E+000  9.0413017163649767E-001  1.8361395608439397E+000
       H  2.8622514030340152E+000 -5.8341799460399124E-001  1.9182111487398363E+000
       O  7.6061104185915218E-001  2.3253547766465883E+000  4.1953425564853655E+000
       H  7.6456525868060499E-001  1.9322708632343324E+000  3.3334105713479087E+000
       H  5.8090311278400775E-001  3.2603931135763502E+000  3.9450140211039089E+000
       O  2.9774199415712470E+000  1.8927423894354254E+000  6.4776004543911867E+000
       H  2.6779029790086017E+000  2.7643409160573280E+000  6.8156441215194965E+000
       H  2.4929842712518111E+000  1.9530916409878898E+000  5.6146098306993082E+000
       O -3.2473663701108525E-002  2.6592883569130996E+000  8.3133564996275560E+000
       H  4.3810215293967836E-001  2.8142654425349796E+000  9.1702739950330088E+000
       H -4.5909253878008510E-001  3.5721020397963730E+000  8.2577969422476158E+000
       O  3.0765180217622272E+000  2.0481655246051962E+000  9.9253769623675172E+000
       H  3.8897494611148495E+000  2.2505363216489527E+000  1.0420794077494554E+001
       H  2.9378457098934194E+000  2.8838998442308439E+000  9.4371634045249611E+000
       O -2.5644870664929154E-002  2.2069297114424620E+000  1.1293379683495841E+001
       H  9.0098381075653433E-001  2.1648910598651629E+000  1.1630435584573055E+001
       H -3.1248276743630721E-001  3.0762299995586657E+000  1.1738771818529209E+001
       O  3.0216863406773502E+000  9.2530543845275159E-001  1.3157401383088134E+001
       H  3.8948691398276187E+000  1.1032372082913791E+000  1.3558371233639798E+001
       H  2.5125483105319835E+000  1.5325379143621924E+000  1.3703226412857903E+001
       O -1.8908229369509464E+000  5.6496487215179840E+000  2.2758467745700103E-001
       H -1.5323999059815792E+000  5.1194715122323702E+000  9.9341859974137647E-001
       H -1.1194814055992766E+000  5.5639560611940588E+000 -3.2011846503377106E-001
       O -2.7159871261516977E-001  4.9546430712343978E+000  3.0774184116594676E+000
       H  2.4530741682895121E-001  5.3992715629873862E+000  3.7907735613305826E+000
       H -1.1157861123781221E+000  4.8520758210843846E+000  3.5983159022069002E+000
       O -3.7073445242741925E+000  6.2083368521962763E+000  4.7240263375125915E+000
       H -3.4291221437881485E+000  5.3648492776507792E+000  4.2751104463010581E+000
       H -3.1433867570194076E+000  6.8041177928867072E+000  4.1959447501523499E+000
       O -5.7724606604731454E-001  5.9307930918486136E+000  5.7360688239991395E+000
       H -2.2447916117366615E-001  6.8626483351365941E+000  5.5633870412581459E+000
       H  9.2215299559556083E-004  5.7077119349184429E+000  6.4797374858031072E+000
       O -3.1963029211943534E+000  7.0920057978789215E+000  7.3174632386710385E+000
       H -3.0526733108359316E+000  6.6113243800341470E+000  6.4299218747400504E+000
       H -2.7012316727982921E+000  7.8845548605329441E+000  7.0560310059918763E+000
       O -1.2853456901906533E+000  5.8590710669380410E+000  8.9597886034273930E+000
       H -1.1501568465382483E+000  6.5001406728241928E+000  9.6706671607474632E+000
       H -1.4371187763081497E+000  6.4514311283582702E+000  8.1953454108730242E+000
       O -3.1790000687790814E+000  7.6517838774928393E+000  1.1707086311315191E+001
       H -2.7473157966333215E+000  7.0366597817318102E+000  1.2335055186872353E+001
       H -2.3839147133077994E+000  8.0735081836410405E+000  1.1326724806684325E+001
       O -8.8572339308111842E-002  5.3605689914218804E+000  1.1941381027130914E+001
       H  8.0451629118391876E-001  5.1002857886687440E+000  1.1574229268470152E+001
       H  2.3890374110321780E-001  6.1329732309274689E+000  1.2467433519400640E+001
       O  5.0633501079491552E+000  2.0321228837091008E+000  5.1438465299052627E-001
       H  5.7262354880307482E+000  2.0315236462093313E+000 -2.0817873554464261E-001
       H  4.7796345629787096E+000  2.9725439919527479E+000  3.8417878207023548E-001
       O  5.7507217381193980E+000 -6.5400233039480307E-003  2.6288415388237030E+000
       H  5.1990795162985135E+000  8.1015949728417536E-001  2.6704112278883816E+000
       H  4.9899837483487319E+000 -5.9523226331874457E-001  2.3872719091270778E+000
       O  5.7457466442504455E+000  3.5204594822364395E+000  4.0755351369802035E+000
       H  5.4184695613740734E+000  2.8392180976967407E+000  4.7036699588258779E+000
       H  5.0950760152075398E+000  3.3277106498188034E+000  3.3634541946357372E+000
       O  7.0574165060909886E+000  4.1758228432073363E-001  6.0992937022341485E+000
       H  7.9616122997617129E+000  2.8953183368052415E-001  6.4367911906783091E+000
       H  7.1926929905444990E+000  1.3265431068615197E+000  5.7466184168028480E+000
       O  5.4109838665419963E+000  2.8048463612190955E+000  7.4435250991562727E+000
       H  5.7787749152405974E+000  2.3174925246626406E+000  8.2166073503147175E+000
       H  4.8341238915656328E+000  3.4317258469461223E+000  7.9199982658317643E+000
       O  6.7334117263428386E+000  1.2488392291290538E+000  1.0035586163659820E+001
       H  6.7523369649492553E+000  1.8270791841589067E+000  1.0828485964750223E+001
       H  7.6232069591064739E+000  1.5294794913489285E+000  9.6921358106128110E+000
       O  5.9987996175703842E+000  3.2801201348157649E+000  1.2317266593273519E+001
       H  5.8099817789760122E+000  3.0423459958353281E+000  1.1377673282232628E+001
       H  5.8265161298210861E+000  4.2454734789428521E+000  1.2193670890988356E+001
       O  7.7262577753492296E+000  9.8246290044420792E-001  1.3559746764009141E+001
       H  8.1816064579648664E+000  8.2516562004919769E-001  1.2689236372984366E+001
       H  7.0756726861791188E+000  1.6506544872753190E+000  1.3318838086405801E+001
       O  1.0036989566995185E+000  6.4787065135110620E+000 -4.8281333982434844E-002
       H  7.6191171419193315E-001  7.3691284543949127E+000  3.1373108527585952E-001
       H  1.9266625799320842E+000  6.7214614507584711E+000 -2.4197066590425734E-001
       O  3.9985526308804706E+000  4.8740573494827508E+000  1.4826139114218078E+000
       H  4.3084974776529945E+000  4.6684722418148592E+000  2.4041151431498484E+000
       H  3.2320425929265117E+000  5.4521112893120725E+000  1.7139487254002683E+000
       O  2.7873001363973420E+000  6.1083667430156883E+000  3.4538020084344838E+000
       H  1.9371532384035093E+000  5.9582215673167376E+000  3.8924811649796340E+000
       H  2.8263449048776841E+000  7.1064491156141916E+000  3.5661255064304034E+000
       O  2.9082016787617442E+000  5.2722611184785801E+000  7.0524647837889249E+000
       H  3.0268573386186630E+000  5.3721362144287763E+000  6.0818199764167042E+000
       H  3.6895684842021419E+000  5.7910864253046777E+000  7.3312784435353802E+000
       O  8.0955969537133554E-001  7.0705404395996947E+000  8.3594406035012732E+000
       H  1.5227402981805478E+000  6.7055691204534691E+000  7.8366495134978349E+000
       H  1.0773544290647756E+000  8.0384956417053548E+000  8.2799565371585029E+000
       O  4.9488793584148016E+000  4.6653269829884874E+000  1.0068786425577589E+001
       H  5.5881466140339784E+000  5.2495490752824523E+000  9.6058253793796613E+000
       H  4.3328291700931869E+000  5.3547301927183728E+000  1.0357821258516584E+001
       O  2.4421105585824363E+000  6.0009914103841702E+000  1.0652106481842448E+001
       H  2.5134767499107697E+000  6.9489144313832458E+000  1.0892368276307336E+001
       H  2.1199862692405040E+000  6.1046505966730615E+000  9.7346005106775895E+000
       O  3.9495238422902008E+000  5.1762095149353211E+000  1.3608891528332855E+001
       H  4.3146296024271793E+000  5.8317478215696283E+000  1.4262330646654766E+001
       H  3.9640446090737509E+000  4.4170147164157481E+000  1.4259730395757456E+001
     &END COORD
     &VELOCITY
         5.3893847775589673E-005 -3.7450740729738231E-006  4.5847789732824644E-005
         4.2704948339724832E-004 -5.9299433935137936E-004 -5.7066329077360204E-004
        -1.3158089073651578E-004  8.9257560353651249E-004 -4.2582920808912053E-006
        -1.1648117707364691E-004  1.7222288921164464E-004  9.8843779402687523E-006
         6.1140459986014871E-004  6.3956547678263129E-005  1.5039811475302646E-004
         7.0112853589605168E-004 -2.5269712020058893E-004  5.1583550233692231E-005
         8.7356653898771293E-005 -5.4575801372135370E-005 -2.6601560038112390E-005
         1.9815701423238349E-004 -3.3688317051693548E-004 -2.9964482529197057E-004
        -2.7101586869344090E-004 -4.1667400580816482E-005  1.8117942227471878E-004
         1.2940604713715449E-004 -5.6129513195136659E-005 -6.9455174456104773E-005
         6.7200109062382060E-004 -3.7951221890758778E-004 -3.1417837177352540E-004
        -5.5800106083361682E-004  7.0008009210599092E-005  1.4923899452002782E-004
         2.9765333823170897E-006  1.2639019542563411E-005 -3.0227228408267364E-005
         8.7276786098727506E-004 -1.1373496410901430E-004  4.0996499205455322E-004
         3.9733421814505188E-004 -1.7372823647737810E-004  5.3537094260873051E-004
        -3.6257259198625923E-005  1.6079834664454201E-004 -7.0603073008062244E-006
         2.5982398341048283E-004 -1.8088338534874609E-004 -4.1608320599849109E-004
        -5.1083467012461026E-004 -2.3639730759832350E-004 -3.8096125224310091E-005
        -3.0330562853010486E-005  4.1609377265422042E-005 -1.1254395335675706E-004
        -2.3985160487623834E-004 -2.8827518954212576E-004  2.5901185653862189E-004
        -1.5228743256799908E-004 -1.8112035352939711E-004 -1.8552213308823179E-004
         5.7499856838607783E-005  1.1606744454982376E-005  8.4309023197051249E-005
         6.9265792871338056E-004 -6.4265203856130786E-004 -1.0928810877864417E-004
        -3.4004583790292963E-004  5.2815308314185674E-004 -2.9661268937264542E-004
        -9.3214548872995034E-005 -2.2969804597463103E-004 -1.1908597104744427E-004
        -2.1582782433062482E-004  4.3447853798240664E-004 -5.2701778876883720E-005
        -2.0159598514509165E-005 -7.9334760659865056E-004  9.8392826099807785E-005
         2.1850745177084379E-006 -1.8819028224867783E-004 -1.8736291294732077E-004
        -2.3962324369707940E-004 -2.2112665280174081E-005  2.4469497584206113E-004
         2.4082294263377124E-004 -4.2571924152107058E-004 -7.3276567111143370E-004
        -9.1532578000088239E-005  1.6103360911625325E-004 -8.4016655648671982E-005
         7.3418313067492754E-005 -6.8199119917810859E-005 -3.9870268720476224E-004
        -6.3878984892689640E-004 -4.0670223610600844E-004 -4.8937861888781735E-004
        -2.0846605901653071E-004  1.5063730737387935E-004  3.2979770745967765E-005
        -1.1490089824780323E-003  5.3307106305465761E-004  3.3796961959569526E-004
         4.9179624438026349E-004 -6.8551624372748389E-004 -6.1982573885494626E-004
        -1.1221565866942283E-005 -5.7003810855600901E-005  1.0574537027803624E-004
        -7.5220544678961901E-004  7.2240459035068344E-004 -5.4011369923264054E-005
        -3.1524850053370320E-004 -1.6385596916199604E-004 -3.1428655840201093E-004
        -2.1136465353873169E-004  1.5930716575441933E-004 -1.8308737445967974E-005
        -4.1979172161097571E-004 -3.1567813027052192E-004  3.2593589126303258E-004
        -5.5203189971307837E-004  2.0235069342146368E-004 -2.9744794208102154E-004
        -1.9686747124988989E-005  5.0839139584691400E-005  9.9573027168983985E-005
        -1.0487331595120850E-003 -5.5190156101369886E-005 -9.9088946071408521E-005
         6.8893444912699340E-004 -2.9414175429224600E-004 -2.2503739662826244E-004
        -3.2632912742366350E-005 -5.2082937063887830E-005 -1.8999056373481473E-004
         3.1657461102429444E-004  3.9003156550765323E-004  2.6473113295072734E-004
        -4.6856712014388695E-004  1.1673643428295916E-004 -2.9389971164687449E-004
         2.6917437676772944E-005  1.0262810095541951E-004  1.0775937788824321E-004
         1.5382261975673673E-004  1.1732526874007747E-004  4.7086270885423167E-004
         1.2848362636634313E-004  7.6460898819287069E-004  6.0107498828678009E-005
        -2.2175542490276415E-005 -1.5700921121209778E-004 -4.0709321890434622E-005
        -3.9039141732860188E-004 -6.2217509113899380E-004  4.7584571668556216E-004
        -7.9366019382899210E-004 -6.2762321981937148E-004  1.9693630310270099E-004
         2.8036501087000610E-004 -5.9414173942599620E-005  3.3265507979490269E-006
         1.3843313947404362E-004  4.6189090251389764E-005  2.2145363628169284E-004
         7.5547790118909095E-006 -2.7957978832656496E-004  1.7660880108845024E-004
         1.1554454739311597E-004 -1.2278205654393733E-004 -7.7291531000959948E-005
        -1.3915665672917707E-004 -1.0414858722953334E-004  1.8694397641963212E-004
         3.7155616018998513E-004 -1.6376758081780275E-004 -1.7952706564133378E-004
         2.0772903856464174E-004  6.2521924220851604E-005 -8.5310487284151826E-005
        -3.8851108995342917E-004 -1.7469344519468322E-004  2.2777889590243136E-004
        -2.6015065219177900E-004 -1.1111814252566112E-004 -1.2596153943473279E-004
         3.1369952203822515E-005 -8.9497428603887865E-006  1.6072609352840015E-004
         8.9065349754940561E-005  3.2718335597455337E-004 -7.6075104780232064E-004
        -6.8149799407371309E-004 -2.3368258821377524E-004  4.7735325603748426E-004
         2.4176783395355524E-004  1.3878014624886214E-004 -6.8767738155347936E-005
         1.9416854083029654E-005  1.2614319081722187E-005  1.6248774163105215E-004
        -3.6960163137445511E-004 -2.1733535132257230E-004 -2.5079491860074011E-004
         1.1135563270923103E-004  1.9143601505333790E-004  6.7884203851378272E-005
         7.4953412298778030E-005 -1.9028772676259686E-004  4.2494126320790021E-004
         2.9722351756820194E-004  5.3778152215801993E-004  5.3216011643437370E-004
         1.3611332408805638E-004  2.2339900238970217E-005  7.7423640111507901E-005
        -1.1645564043153400E-004 -1.0894069827917374E-006 -2.8468983412711002E-004
         7.7023373413826144E-005  2.5757117969064773E-004  1.0389884098643076E-004
        -1.0990174394779541E-004 -1.3254628583215755E-004  7.0934940740694027E-006
        -3.9003260074600596E-004 -4.7633033912006700E-004 -1.5277378384837700E-005
         5.3437790203861833E-004  4.2839614475991797E-004 -8.3182870358424374E-005
         2.2392823307365895E-005 -6.1259047995714923E-005  8.0853723910687247E-005
        -1.4974117013225253E-004  2.1842178176500671E-004 -1.5375765638633962E-004
         3.6221471847677100E-004  1.3344117558817867E-004  2.4911174040829852E-004
        -3.8338505283264940E-005  4.6854189638115414E-005  2.2579004685934664E-004
        -9.3232112167314571E-005 -2.4519226115237472E-004  1.8154234040567533E-004
         1.4905936877251358E-006 -3.4383882286575281E-004  1.3471618614228610E-004
        -1.4135381715180142E-004  3.6695768396701336E-005  3.3433175794294001E-006
         3.2358294428399160E-004  9.3819181716605973E-005 -1.0420601971486812E-004
        -6.9522408472401506E-004  1.2265422880877700E-004 -6.9769309003309729E-004
         1.4433997271835408E-005 -1.0962780429738120E-005  1.8388813597732177E-004
        -2.0169120302549104E-005 -2.4886447339533480E-005 -9.1489563343732070E-004
         2.1974906170501237E-004  4.8401128635769749E-004  2.3210313594207012E-004
        -5.2867929459532540E-005 -7.7706737807097960E-006 -6.0734963421584167E-005
         3.8160986659299310E-004 -1.5967487757637080E-005 -1.0752960346968171E-005
        -1.9504499421369858E-004 -8.6221199049375303E-005 -1.6679005450231327E-004
        -1.3624108452920693E-004 -1.2036274830254959E-004  3.7164032665280906E-005
        -2.8874872118630655E-004 -2.7001182205441679E-004 -3.1960268970216489E-004
         4.8437054970129742E-004  1.7495464201929293E-004 -1.2217538097035360E-004
     &END VELOCITY
     &TOPOLOGY
       COORD_FILE_NAME ice_relaxed.xyz
       COORD_FILE_FORMAT XYZ
       NUMBER_OF_ATOMS 96
       MULTIPLE_UNIT_CELL 1 1 1
     &END TOPOLOGY
   &END SUBSYS
 &END FORCE_EVAL
